results_rootrelaxation/bin012_050_013.srr.sol
solution status: optimal solution found
objective value:                                    0
_var183_                            0.139819405858364 	(obj:0)
_var600_                            0.350854109633869 	(obj:0)
_var661_                           0.0798613383646314 	(obj:0)
_var663_                            0.155118677117442 	(obj:0)
_var668_                           0.0440765256955094 	(obj:0)
_var676_                            0.137176619806677 	(obj:0)
_var679_                            0.173419575574427 	(obj:0)
_var681_                            0.163868533242458 	(obj:0)
_var689_                           0.0514700074250803 	(obj:0)
_var690_                            0.257113066557133 	(obj:0)
_var694_                          0.00721067586263108 	(obj:0)
_var695_                           0.0418896258798906 	(obj:0)
_var696_                           0.0190140670243045 	(obj:0)
_var698_                            0.174292981383142 	(obj:0)
_var702_                            0.276668780594593 	(obj:0)
_var703_                            0.155746084907684 	(obj:0)
_var704_                            0.379504979767227 	(obj:0)
_var707_                            0.280794325344792 	(obj:0)
_var708_                            0.137176619806677 	(obj:0)
_var710_                            0.327387252788918 	(obj:0)
_var711_                            0.168625999508002 	(obj:0)
_var712_                           0.0873450945963949 	(obj:0)
_var714_                           0.0606780066487176 	(obj:0)
_var717_                            0.115874094151796 	(obj:0)
_var719_                            0.321684161112904 	(obj:0)
_var721_                            0.192095113215509 	(obj:0)
_var724_                            0.343498994567733 	(obj:0)
_var726_                            0.231120780513346 	(obj:0)
_var727_                            0.175696749892234 	(obj:0)
_var728_                            0.141342788082863 	(obj:0)
_var729_                            0.439205764929708 	(obj:0)
_var731_                            0.473449140473897 	(obj:0)
_var735_                           0.0990378994928818 	(obj:0)
_var736_                            0.340267167389237 	(obj:0)
_var737_                            0.119099150742621 	(obj:0)
_var738_                             0.29251421259194 	(obj:0)
_var744_                            0.197692132351447 	(obj:0)
_var745_                            0.130496306644428 	(obj:0)
_var746_                            0.231120780513347 	(obj:0)
_var747_                            0.279440207811904 	(obj:0)
_var748_                           0.0902677316048786 	(obj:0)
_var750_                            0.159284845393631 	(obj:0)
_var752_                            0.367121574928966 	(obj:0)
_var753_                            0.132304053550836 	(obj:0)
_var755_                            0.117568997930458 	(obj:0)
_var756_                            0.287567169871789 	(obj:0)
_var757_                           0.0073551150661363 	(obj:0)
_var759_                           0.0844111732751367 	(obj:0)
_var761_                             0.30479831547779 	(obj:0)
_var762_                           0.0371592419650066 	(obj:0)
_var763_                             0.13054821448319 	(obj:0)
_var765_                            0.129663524361704 	(obj:0)
_var766_                            0.211472535111139 	(obj:0)
_var771_                            0.196597554012363 	(obj:0)
_var772_                             0.23681033101403 	(obj:0)
_var773_                           0.0687079236187462 	(obj:0)
_var774_                           0.0218148334548283 	(obj:0)
_var777_                            0.113350921815512 	(obj:0)
_var778_                           0.0199822610603191 	(obj:0)
_var779_                           0.0423184297653087 	(obj:0)
_var781_                           0.0955961840967921 	(obj:0)
_var782_                            0.248119469276202 	(obj:0)
_var785_                           0.0216545962134359 	(obj:0)
_var786_                           0.0827772047854491 	(obj:0)
